
Gurobi 9.1.1 (mac64, gurobi_cl) logging started Sun Feb 21 18:32:06 2021

Academic license - for non-commercial use only - expires 2021-04-06
Using license file /Users/agnese/gurobi.lic
Set parameter LogFile to value gurobi.log

Gurobi Optimizer version 9.1.1 build v9.1.1rc0 (mac64)
Copyright (c) 2020, Gurobi Optimization, LLC

Read LP format model from file /Users/agnese/Documents/KTH-Work/GitHub_repositories/KTH-dESA/GLUCOSE/results/2Degree2060/2Degree2060+Materials+Food/GLUCOSE_2Degree2060+Materials+Food.lp
Reading time = 0.46 seconds
cost: 55289 rows, 45900 columns, 520298 nonzeros
Thread count: 2 physical cores, 4 logical processors, using up to 4 threads
Optimize a model with 55289 rows, 45900 columns and 520298 nonzeros
Model fingerprint: 0x6adb7280
Coefficient statistics:
  Matrix range     [2e-08, 6e+03]
  Objective range  [7e-08, 4e+11]
  Bounds range     [0e+00, 0e+00]
  RHS range        [1e-03, 1e+06]
Warning: Model contains large objective coefficients
         Consider reformulating model or setting NumericFocus parameter
         to avoid numerical issues.

Concurrent LP optimizer: dual simplex and barrier
Showing barrier log only...

Presolve removed 30095 rows and 27983 columns
Presolve time: 0.24s
Presolved: 25194 rows, 18039 columns, 350920 nonzeros

Ordering time: 1.29s

Barrier statistics:
 AA' NZ     : 1.262e+06
 Factor NZ  : 8.961e+06 (roughly 90 MBytes of memory)
 Factor Ops : 8.790e+09 (less than 1 second per iteration)
 Threads    : 1

                  Objective                Residual
Iter       Primal          Dual         Primal    Dual     Compl     Time
   0   5.03240386e+20 -2.73631914e+17  9.31e+08 2.08e+12  3.48e+16     3s
   1   2.66936116e+20 -3.98231397e+17  9.16e+08 1.98e+12  3.40e+16     3s
   2   3.80434102e+20 -1.21741363e+18  8.48e+08 1.38e+12  3.35e+16     4s
   3   1.59193237e+20 -2.96491491e+18  2.50e+08 2.58e+11  1.30e+16     5s
   4   2.87509209e+19 -2.76575910e+18  4.43e+07 4.40e+09  2.59e+15     5s
   5   3.81711429e+18 -2.07900350e+18  5.79e+06 1.20e+09  3.71e+14     6s
   6   1.35953080e+18 -1.09867848e+18  2.08e+06 1.68e+08  1.35e+14     7s
   7   1.22427274e+18 -9.55573069e+17  1.88e+06 1.38e+08  1.20e+14     7s
   8   2.44528681e+17 -6.14236148e+17  3.87e+05 5.66e+07  3.25e+13     8s
   9   3.99995746e+16 -1.93172012e+17  6.19e+04 3.75e+06  7.11e+12     9s
  10   1.15940698e+16 -6.32987988e+16  1.75e+04 1.05e+06  2.27e+12     9s
  11   3.89316357e+15 -8.29718328e+15  5.71e+03 7.32e+04  5.05e+11    10s
  12   7.50628303e+14 -4.80973092e+15  1.06e+03 3.55e+04  1.62e+11    11s
  13   1.51892544e+14 -9.81468801e+14  1.74e+02 3.56e+03  3.04e+10    12s
  14   1.00725155e+14 -5.12084532e+14  1.04e+02 1.68e+03  1.64e+10    12s
  15   3.92266913e+13 -2.20312082e+14  2.95e+01 5.55e+02  6.59e+09    13s
  16   1.46827578e+13 -1.03258738e+14  2.84e+00 2.19e+02  2.79e+09    14s
  17   5.14429004e+12 -4.77595935e+13  1.02e+00 9.01e+01  1.19e+09    15s
  18   3.45116222e+11 -7.82760824e+12  5.77e-02 8.70e+00  1.72e+08    15s
  19   2.05052103e+10 -4.75866102e+11  7.20e-08 4.37e-01  1.04e+07    16s
  20   5.18014493e+09 -5.29377314e+10  2.28e-08 2.49e-02  1.21e+06    17s
  21   1.50693062e+09 -6.22269703e+09  2.53e-08 2.69e-03  1.61e+05    18s
  22   6.69937387e+08 -7.05671010e+08  1.01e-08 7.32e-04  2.87e+04    19s
  23   5.38082282e+08  2.73109257e+08  1.60e-08 4.88e-04  5.53e+03    20s
  24   5.19775002e+08  4.33774796e+08  1.43e-08 2.44e-04  1.80e+03    20s
  25   5.11813608e+08  4.98768359e+08  3.93e-08 2.44e-04  2.72e+02    21s
  26   5.10765180e+08  5.09606053e+08  5.49e-09 2.44e-04  2.42e+01    22s
  27   5.10613831e+08  5.10473526e+08  1.80e-08 2.44e-04  2.93e+00    24s
  28   5.10573900e+08  5.10502956e+08  2.03e-07 2.44e-04  1.48e+00    24s
  29   5.10555879e+08  5.10522524e+08  2.70e-06 2.44e-04  6.97e-01    25s
  30   5.10546383e+08  5.10528189e+08  1.05e-06 2.44e-04  3.80e-01    26s
  31   5.10541770e+08  5.10533431e+08  4.06e-07 2.44e-04  1.74e-01    27s
  32   5.10540011e+08  5.10535573e+08  3.42e-07 2.44e-04  9.27e-02    28s
  33   5.10539605e+08  5.10536721e+08  2.60e-07 2.44e-04  6.02e-02    29s
  34   5.10538849e+08  5.10537503e+08  1.12e-07 2.44e-04  2.81e-02    30s
  35   5.10538300e+08  5.10538124e+08  5.24e-08 2.44e-04  3.76e-03    31s
  36   5.10538266e+08  5.10538179e+08  2.55e-08 4.88e-04  1.90e-03    31s
  37   5.10538222e+08  5.10538213e+08  4.95e-08 4.88e-04  2.13e-04    32s
  38   5.10538221e+08  5.10538216e+08  3.04e-08 2.44e-04  1.18e-04    33s

Barrier solved model in 38 iterations and 33.22 seconds
Optimal objective 5.10538221e+08

Crossover log...

    8553 DPushes remaining with DInf 0.0000000e+00                33s
       0 DPushes remaining with DInf 0.0000000e+00                34s

   16205 PPushes remaining with PInf 0.0000000e+00                34s
    4033 PPushes remaining with PInf 4.2186292e-01                35s
       0 PPushes remaining with PInf 8.1624075e-03                36s

  Push phase complete: Pinf 8.1624075e-03, Dinf 7.7915514e+05     36s

Iteration    Objective       Primal Inf.    Dual Inf.      Time
   21599    5.1053822e+08   0.000000e+00   7.791551e+05     36s
Extra simplex iterations after uncrush: 4
   23135    5.1053822e+08   0.000000e+00   0.000000e+00     39s

Solved with barrier
Solved in 23135 iterations and 39.15 seconds
Optimal objective  5.105382185e+08

No IIS available for current model

